coords = array2d(1..65, 1..2, [770, 20, 372, 922, 121, 172, 623, 90, 733, 257,
    75, 286, 460, 254, 227, 858, 321, 939, 631, 360, 596, 676, 490,
    626, 293, 469, 289, 646, 230, 940, 674, 765, 848, 232, 583, 145,
    201, 382, 28, 43, 444, 995, 427, 556, 842, 133, 122, 544, 536,
    968, 121, 929, 666, 168, 648, 60, 582, 29, 198, 813, 560, 585,
    793, 784, 447, 837, 96, 107, 99, 583, 647, 902, 644, 90, 531, 141,
    785, 14, 333, 871, 481, 165, 274, 887, 255, 208, 897, 316, 461,
    165, 77, 340, 493, 696, 553, 575, 840, 323, 214, 6, 349, 113, 89,
    714, 55, 860, 965, 581, 548, 117, 458, 241, 845, 35, 567, 943,
    420, 636, 473, 704, 892, 647, 352, 885, 240, 237, 690, 179, 877,
    764]);

n = 65;

